15 15
3 10
9 4
6 7
10 10
8 5
9 4
1 8
5 6
5 7
5 2
10 9
1 7
3 1
3 10
6 10
20 20 53
16 15 63
14 13 72
16 19 96
20 15 53
14 15 82
17 19 71
16 14 88
16 11 64
16 16 73
12 16 93
20 20 84
17 13 96
10 18 75
14 19 100
